66
1 0 17
2 0 20
2 1 16
3 0 13
3 1 9
3 2 4
4 0 16
4 1 21
4 2 1
4 3 3
5 0 24
5 1 4
5 2 24
5 3 18
5 4 21
6 0 21
6 1 13
6 2 12
6 3 16
6 4 5
6 5 11
7 0 11
7 1 1
7 2 13
7 3 3
7 4 24
7 5 5
7 6 1
8 0 12
8 1 10
8 2 15
8 3 16
8 4 19
8 5 13
8 6 18
8 7 10
9 0 10
9 1 5
9 2 4
9 3 5
9 4 9
9 5 19
9 6 19
9 7 6
9 8 5
10 0 5
10 1 10
10 2 14
10 3 10
10 4 25
10 5 5
10 6 18
10 7 3
10 8 24
10 9 22
11 0 2
11 1 21
11 2 20
11 3 7
11 4 4
11 5 13
11 6 11
11 7 4
11 8 17
11 9 4
11 10 17
12 0 22
12 1 22
12 2 12
12 3 20
12 4 22
12 5 23
12 6 18
12 7 4
12 8 8
12 9 23
12 10 23
12 11 18
13 0 1
13 1 20
13 2 5
13 3 9
13 4 16
13 5 24
13 6 18
13 7 25
13 8 11
13 9 11
13 10 13
13 11 8
13 12 23
14 0 21
14 1 8
14 2 11
14 3 6
14 4 25
14 5 2
14 6 12
14 7 12
14 8 7
14 9 18
14 10 10
14 11 15
14 12 1
14 13 18
15 0 17
15 1 23
15 2 8
15 3 23
15 4 19
15 5 10
15 6 13
15 7 20
15 8 2
15 9 24
15 10 1
15 11 1
15 12 16
15 13 8
15 14 18
16 0 16
16 1 22
16 2 7
16 3 19
16 4 21
16 5 13
16 6 19
16 7 19
16 8 19
16 9 20
16 10 8
16 11 16
16 12 19
16 13 1
16 14 3
16 15 10
17 0 9
17 1 15
17 2 16
17 3 20
17 4 11
17 5 11
17 6 2
17 7 14
17 8 19
17 9 4
17 10 14
17 11 22
17 12 22
17 13 7
17 14 23
17 15 4
17 16 8
18 0 12
18 1 7
18 2 23
18 3 18
18 4 23
18 5 10
18 6 24
18 7 15
18 8 10
18 9 6
18 10 20
18 11 17
18 12 19
18 13 1
18 14 1
18 15 17
18 16 12
18 17 3
19 0 3
19 1 21
19 2 15
19 3 8
19 4 21
19 5 21
19 6 2
19 7 21
19 8 11
19 9 19
19 10 22
19 11 10
19 12 1
19 13 8
19 14 1
19 15 7
19 16 24
19 17 3
19 18 11
20 0 10
20 1 1
20 2 15
20 3 9
20 4 3
20 5 23
20 6 20
20 7 21
20 8 9
20 9 5
20 10 18
20 11 8
20 12 11
20 13 21
20 14 7
20 15 3
20 16 22
20 17 17
20 18 24
20 19 4
21 0 25
21 1 24
21 2 24
21 3 8
21 4 6
21 5 4
21 6 15
21 7 15
21 8 23
21 9 11
21 10 14
21 11 11
21 12 12
21 13 22
21 14 7
21 15 1
21 16 13
21 17 11
21 18 9
21 19 1
21 20 14
22 0 20
22 1 6
22 2 1
22 3 18
22 4 13
22 5 17
22 6 6
22 7 19
22 8 6
22 9 25
22 10 21
22 11 23
22 12 9
22 13 25
22 14 16
22 15 5
22 16 5
22 17 9
22 18 16
22 19 23
22 20 1
22 21 14
23 0 9
23 1 10
23 2 7
23 3 13
23 4 20
23 5 12
23 6 20
23 7 12
23 8 24
23 9 3
23 10 19
23 11 9
23 12 14
23 13 5
23 14 3
23 15 11
23 16 22
23 17 25
23 18 14
23 19 11
23 20 25
23 21 21
23 22 11
24 0 16
24 1 8
24 2 25
24 3 19
24 4 14
24 5 10
24 6 21
24 7 23
24 8 11
24 9 20
24 10 24
24 11 5
24 12 4
24 13 22
24 14 9
24 15 6
24 16 18
24 17 7
24 18 10
24 19 25
24 20 18
24 21 5
24 22 18
24 23 4
25 0 4
25 1 18
25 2 14
25 3 22
25 4 9
25 5 4
25 6 4
25 7 4
25 8 13
25 9 13
25 10 2
25 11 21
25 12 23
25 13 3
25 14 21
25 15 2
25 16 9
25 17 24
25 18 14
25 19 21
25 20 2
25 21 23
25 22 15
25 23 11
25 24 1
26 0 25
26 1 12
26 2 4
26 3 18
26 4 23
26 5 18
26 6 25
26 7 11
26 8 19
26 9 21
26 10 3
26 11 23
26 12 22
26 13 5
26 14 23
26 15 2
26 16 11
26 17 14
26 18 1
26 19 13
26 20 8
26 21 11
26 22 11
26 23 17
26 24 23
26 25 5
27 0 6
27 1 15
27 2 3
27 3 11
27 4 17
27 5 12
27 6 21
27 7 21
27 8 10
27 9 22
27 10 16
27 11 20
27 12 5
27 13 20
27 14 11
27 15 19
27 16 24
27 17 11
27 18 21
27 19 2
27 20 23
27 21 4
27 22 14
27 23 18
27 24 22
27 25 17
27 26 1
28 0 12
28 1 6
28 2 1
28 3 19
28 4 3
28 5 9
28 6 15
28 7 15
28 8 18
28 9 2
28 10 25
28 11 9
28 12 3
28 13 2
28 14 2
28 15 12
28 16 20
28 17 21
28 18 6
28 19 22
28 20 8
28 21 5
28 22 25
28 23 11
28 24 11
28 25 7
28 26 1
28 27 23
29 0 4
29 1 25
29 2 21
29 3 7
29 4 15
29 5 8
29 6 3
29 7 25
29 8 15
29 9 10
29 10 2
29 11 17
29 12 20
29 13 22
29 14 4
29 15 11
29 16 4
29 17 20
29 18 20
29 19 25
29 20 7
29 21 16
29 22 4
29 23 6
29 24 15
29 25 25
29 26 8
29 27 18
29 28 3
30 0 12
30 1 21
30 2 12
30 3 4
30 4 14
30 5 1
30 6 3
30 7 6
30 8 10
30 9 7
30 10 20
30 11 20
30 12 3
30 13 3
30 14 3
30 15 2
30 16 22
30 17 2
30 18 7
30 19 9
30 20 19
30 21 15
30 22 14
30 23 12
30 24 8
30 25 4
30 26 2
30 27 6
30 28 6
30 29 9
31 0 23
31 1 5
31 2 15
31 3 19
31 4 4
31 5 21
31 6 12
31 7 2
31 8 25
31 9 11
31 10 10
31 11 11
31 12 9
31 13 11
31 14 25
31 15 12
31 16 9
31 17 2
31 18 11
31 19 2
31 20 1
31 21 20
31 22 4
31 23 25
31 24 16
31 25 2
31 26 24
31 27 17
31 28 12
31 29 13
31 30 18
32 0 11
32 1 15
32 2 12
32 3 13
32 4 12
32 5 12
32 6 18
32 7 15
32 8 23
32 9 4
32 10 10
32 11 13
32 12 22
32 13 24
32 14 18
32 15 18
32 16 12
32 17 23
32 18 23
32 19 2
32 20 12
32 21 20
32 22 24
32 23 3
32 24 7
32 25 24
32 26 23
32 27 4
32 28 23
32 29 8
32 30 24
32 31 11
33 0 15
33 1 25
33 2 11
33 3 7
33 4 3
33 5 13
33 6 14
33 7 3
33 8 21
33 9 18
33 10 14
33 11 21
33 12 23
33 13 13
33 14 23
33 15 6
33 16 20
33 17 15
33 18 10
33 19 13
33 20 10
33 21 1
33 22 8
33 23 12
33 24 6
33 25 23
33 26 20
33 27 10
33 28 17
33 29 20
33 30 4
33 31 25
33 32 20
34 0 8
34 1 25
34 2 11
34 3 1
34 4 10
34 5 3
34 6 21
34 7 23
34 8 3
34 9 2
34 10 8
34 11 20
34 12 18
34 13 12
34 14 8
34 15 5
34 16 19
34 17 14
34 18 1
34 19 14
34 20 19
34 21 10
34 22 15
34 23 25
34 24 20
34 25 9
34 26 7
34 27 21
34 28 11
34 29 15
34 30 19
34 31 9
34 32 22
34 33 8
35 0 2
35 1 12
35 2 12
35 3 25
35 4 11
35 5 23
35 6 7
35 7 23
35 8 7
35 9 12
35 10 7
35 11 8
35 12 12
35 13 7
35 14 15
35 15 12
35 16 19
35 17 25
35 18 24
35 19 7
35 20 24
35 21 18
35 22 2
35 23 17
35 24 20
35 25 11
35 26 12
35 27 10
35 28 1
35 29 24
35 30 16
35 31 12
35 32 11
35 33 14
35 34 15
36 0 9
36 1 17
36 2 3
36 3 1
36 4 9
36 5 13
36 6 6
36 7 7
36 8 4
36 9 13
36 10 11
36 11 14
36 12 6
36 13 24
36 14 25
36 15 20
36 16 16
36 17 6
36 18 12
36 19 16
36 20 6
36 21 19
36 22 10
36 23 5
36 24 1
36 25 18
36 26 6
36 27 6
36 28 8
36 29 23
36 30 20
36 31 13
36 32 17
36 33 20
36 34 3
36 35 6
37 0 23
37 1 19
37 2 19
37 3 12
37 4 19
37 5 21
37 6 11
37 7 9
37 8 12
37 9 9
37 10 16
37 11 21
37 12 8
37 13 19
37 14 24
37 15 3
37 16 15
37 17 19
37 18 5
37 19 2
37 20 7
37 21 5
37 22 20
37 23 10
37 24 7
37 25 14
37 26 3
37 27 25
37 28 18
37 29 18
37 30 10
37 31 4
37 32 4
37 33 19
37 34 14
37 35 13
37 36 6
38 0 12
38 1 8
38 2 14
38 3 8
38 4 7
38 5 20
38 6 11
38 7 6
38 8 17
38 9 8
38 10 7
38 11 4
38 12 20
38 13 18
38 14 7
38 15 20
38 16 20
38 17 19
38 18 6
38 19 3
38 20 3
38 21 12
38 22 6
38 23 1
38 24 10
38 25 11
38 26 18
38 27 9
38 28 17
38 29 2
38 30 7
38 31 10
38 32 14
38 33 1
38 34 15
38 35 2
38 36 2
38 37 20
39 0 23
39 1 5
39 2 6
39 3 22
39 4 1
39 5 1
39 6 10
39 7 1
39 8 17
39 9 1
39 10 1
39 11 20
39 12 11
39 13 17
39 14 14
39 15 20
39 16 3
39 17 24
39 18 25
39 19 3
39 20 20
39 21 8
39 22 11
39 23 6
39 24 1
39 25 18
39 26 16
39 27 12
39 28 7
39 29 2
39 30 8
39 31 6
39 32 23
39 33 11
39 34 4
39 35 25
39 36 1
39 37 20
39 38 22
40 0 6
40 1 9
40 2 2
40 3 25
40 4 14
40 5 16
40 6 18
40 7 4
40 8 15
40 9 8
40 10 6
40 11 7
40 12 23
40 13 13
40 14 7
40 15 22
40 16 9
40 17 23
40 18 6
40 19 20
40 20 25
40 21 20
40 22 11
40 23 5
40 24 20
40 25 18
40 26 18
40 27 20
40 28 18
40 29 16
40 30 5
40 31 15
40 32 2
40 33 19
40 34 5
40 35 10
40 36 22
40 37 15
40 38 17
40 39 24
41 0 21
41 1 24
41 2 25
41 3 21
41 4 7
41 5 11
41 6 14
41 7 2
41 8 24
41 9 1
41 10 1
41 11 2
41 12 10
41 13 10
41 14 22
41 15 14
41 16 23
41 17 10
41 18 22
41 19 13
41 20 19
41 21 13
41 22 25
41 23 11
41 24 21
41 25 1
41 26 21
41 27 3
41 28 4
41 29 15
41 30 10
41 31 22
41 32 18
41 33 11
41 34 9
41 35 9
41 36 19
41 37 24
41 38 9
41 39 16
41 40 8
42 0 22
42 1 8
42 2 17
42 3 14
42 4 5
42 5 9
42 6 12
42 7 19
42 8 4
42 9 20
42 10 23
42 11 2
42 12 17
42 13 21
42 14 22
42 15 5
42 16 6
42 17 9
42 18 8
42 19 12
42 20 16
42 21 25
42 22 4
42 23 10
42 24 4
42 25 6
42 26 23
42 27 13
42 28 14
42 29 13
42 30 23
42 31 14
42 32 12
42 33 1
42 34 6
42 35 8
42 36 22
42 37 2
42 38 9
42 39 19
42 40 18
42 41 24
43 0 5
43 1 21
43 2 20
43 3 20
43 4 7
43 5 21
43 6 20
43 7 18
43 8 17
43 9 3
43 10 20
43 11 16
43 12 11
43 13 23
43 14 10
43 15 6
43 16 8
43 17 7
43 18 3
43 19 10
43 20 13
43 21 6
43 22 21
43 23 17
43 24 7
43 25 4
43 26 18
43 27 2
43 28 7
43 29 15
43 30 12
43 31 11
43 32 7
43 33 25
43 34 16
43 35 10
43 36 8
43 37 9
43 38 13
43 39 10
43 40 24
43 41 13
43 42 10
44 0 6
44 1 6
44 2 20
44 3 23
44 4 7
44 5 7
44 6 1
44 7 25
44 8 16
44 9 7
44 10 3
44 11 1
44 12 1
44 13 4
44 14 3
44 15 25
44 16 2
44 17 6
44 18 23
44 19 18
44 20 13
44 21 5
44 22 6
44 23 6
44 24 8
44 25 5
44 26 24
44 27 4
44 28 2
44 29 24
44 30 23
44 31 11
44 32 7
44 33 3
44 34 23
44 35 1
44 36 14
44 37 20
44 38 21
44 39 15
44 40 21
44 41 17
44 42 3
44 43 17
45 0 4
45 1 17
45 2 11
45 3 4
45 4 7
45 5 11
45 6 1
45 7 2
45 8 16
45 9 12
45 10 19
45 11 2
45 12 25
45 13 20
45 14 9
45 15 10
45 16 11
45 17 22
45 18 9
45 19 19
45 20 15
45 21 3
45 22 8
45 23 25
45 24 3
45 25 8
45 26 16
45 27 12
45 28 9
45 29 5
45 30 21
45 31 1
45 32 22
45 33 5
45 34 12
45 35 5
45 36 5
45 37 17
45 38 22
45 39 21
45 40 1
45 41 5
45 42 22
45 43 14
45 44 20
46 0 5
46 1 9
46 2 11
46 3 25
46 4 21
46 5 3
46 6 7
46 7 7
46 8 18
46 9 23
46 10 5
46 11 21
46 12 5
46 13 25
46 14 17
46 15 8
46 16 13
46 17 15
46 18 10
46 19 18
46 20 24
46 21 9
46 22 24
46 23 8
46 24 10
46 25 14
46 26 23
46 27 15
46 28 10
46 29 2
46 30 6
46 31 9
46 32 20
46 33 23
46 34 3
46 35 19
46 36 19
46 37 22
46 38 11
46 39 6
46 40 12
46 41 9
46 42 16
46 43 2
46 44 19
46 45 21
47 0 25
47 1 25
47 2 19
47 3 2
47 4 11
47 5 18
47 6 8
47 7 21
47 8 6
47 9 23
47 10 6
47 11 10
47 12 11
47 13 15
47 14 9
47 15 13
47 16 25
47 17 17
47 18 13
47 19 15
47 20 2
47 21 4
47 22 25
47 23 5
47 24 11
47 25 2
47 26 2
47 27 17
47 28 24
47 29 12
47 30 19
47 31 8
47 32 6
47 33 25
47 34 23
47 35 2
47 36 7
47 37 4
47 38 2
47 39 2
47 40 8
47 41 24
47 42 2
47 43 12
47 44 25
47 45 12
47 46 21
48 0 25
48 1 10
48 2 20
48 3 10
48 4 17
48 5 9
48 6 20
48 7 11
48 8 12
48 9 9
48 10 23
48 11 20
48 12 6
48 13 20
48 14 20
48 15 16
48 16 16
48 17 16
48 18 18
48 19 24
48 20 9
48 21 24
48 22 8
48 23 20
48 24 8
48 25 2
48 26 17
48 27 12
48 28 15
48 29 20
48 30 19
48 31 12
48 32 18
48 33 25
48 34 14
48 35 12
48 36 18
48 37 8
48 38 2
48 39 22
48 40 16
48 41 16
48 42 4
48 43 13
48 44 12
48 45 6
48 46 16
48 47 16
49 0 16
49 1 22
49 2 8
49 3 4
49 4 12
49 5 17
49 6 8
49 7 1
49 8 23
49 9 7
49 10 12
49 11 23
49 12 22
49 13 23
49 14 16
49 15 22
49 16 25
49 17 15
49 18 9
49 19 10
49 20 8
49 21 6
49 22 7
49 23 3
49 24 24
49 25 7
49 26 6
49 27 8
49 28 13
49 29 22
49 30 6
49 31 9
49 32 18
49 33 15
49 34 13
49 35 14
49 36 11
49 37 1
49 38 20
49 39 14
49 40 20
49 41 24
49 42 21
49 43 1
49 44 20
49 45 19
49 46 21
49 47 25
49 48 1
50 0 12
50 1 2
50 2 13
50 3 2
50 4 9
50 5 24
50 6 14
50 7 22
50 8 3
50 9 10
50 10 13
50 11 5
50 12 5
50 13 8
50 14 20
50 15 18
50 16 16
50 17 6
50 18 24
50 19 14
50 20 7
50 21 22
50 22 19
50 23 13
50 24 14
50 25 19
50 26 23
50 27 18
50 28 8
50 29 10
50 30 13
50 31 20
50 32 20
50 33 17
50 34 6
50 35 6
50 36 8
50 37 2
50 38 3
50 39 17
50 40 2
50 41 14
50 42 2
50 43 16
50 44 21
50 45 18
50 46 18
50 47 10
50 48 6
50 49 12
51 0 10
51 1 5
51 2 17
51 3 19
51 4 21
51 5 22
51 6 9
51 7 23
51 8 12
51 9 18
51 10 6
51 11 13
51 12 23
51 13 18
51 14 19
51 15 3
51 16 8
51 17 14
51 18 9
51 19 15
51 20 21
51 21 10
51 22 13
51 23 24
51 24 22
51 25 6
51 26 24
51 27 9
51 28 25
51 29 13
51 30 9
51 31 1
51 32 10
51 33 16
51 34 20
51 35 14
51 36 5
51 37 19
51 38 16
51 39 3
51 40 16
51 41 15
51 42 8
51 43 6
51 44 23
51 45 14
51 46 22
51 47 1
51 48 2
51 49 24
51 50 16
52 0 7
52 1 25
52 2 11
52 3 13
52 4 1
52 5 22
52 6 5
52 7 8
52 8 22
52 9 20
52 10 12
52 11 25
52 12 10
52 13 3
52 14 19
52 15 18
52 16 6
52 17 12
52 18 23
52 19 25
52 20 9
52 21 14
52 22 9
52 23 19
52 24 6
52 25 20
52 26 1
52 27 10
52 28 16
52 29 18
52 30 10
52 31 11
52 32 14
52 33 8
52 34 15
52 35 3
52 36 5
52 37 17
52 38 14
52 39 19
52 40 11
52 41 23
52 42 4
52 43 10
52 44 9
52 45 23
52 46 19
52 47 7
52 48 2
52 49 5
52 50 18
52 51 18
53 0 10
53 1 2
53 2 3
53 3 9
53 4 17
53 5 11
53 6 19
53 7 12
53 8 9
53 9 15
53 10 19
53 11 15
53 12 6
53 13 13
53 14 15
53 15 13
53 16 14
53 17 9
53 18 20
53 19 10
53 20 16
53 21 1
53 22 14
53 23 11
53 24 25
53 25 8
53 26 6
53 27 14
53 28 19
53 29 17
53 30 24
53 31 22
53 32 17
53 33 23
53 34 23
53 35 20
53 36 24
53 37 21
53 38 25
53 39 12
53 40 20
53 41 15
53 42 9
53 43 15
53 44 5
53 45 7
53 46 24
53 47 13
53 48 19
53 49 7
53 50 17
53 51 22
53 52 2
54 0 1
54 1 19
54 2 20
54 3 7
54 4 13
54 5 16
54 6 23
54 7 24
54 8 16
54 9 17
54 10 21
54 11 25
54 12 22
54 13 13
54 14 2
54 15 9
54 16 9
54 17 8
54 18 6
54 19 7
54 20 7
54 21 24
54 22 2
54 23 10
54 24 18
54 25 22
54 26 20
54 27 19
54 28 22
54 29 1
54 30 19
54 31 8
54 32 6
54 33 16
54 34 8
54 35 24
54 36 12
54 37 5
54 38 9
54 39 7
54 40 5
54 41 22
54 42 6
54 43 9
54 44 7
54 45 25
54 46 15
54 47 3
54 48 22
54 49 13
54 50 10
54 51 21
54 52 4
54 53 12
55 0 22
55 1 11
55 2 17
55 3 21
55 4 1
55 5 15
55 6 8
55 7 15
55 8 17
55 9 14
55 10 18
55 11 16
55 12 6
55 13 7
55 14 11
55 15 16
55 16 25
55 17 21
55 18 9
55 19 7
55 20 17
55 21 20
55 22 4
55 23 22
55 24 13
55 25 24
55 26 4
55 27 10
55 28 15
55 29 23
55 30 3
55 31 19
55 32 10
55 33 13
55 34 21
55 35 14
55 36 7
55 37 3
55 38 15
55 39 16
55 40 17
55 41 13
55 42 13
55 43 13
55 44 11
55 45 20
55 46 24
55 47 2
55 48 25
55 49 5
55 50 5
55 51 4
55 52 14
55 53 24
55 54 11
56 0 12
56 1 4
56 2 23
56 3 5
56 4 10
56 5 23
56 6 4
56 7 16
56 8 8
56 9 2
56 10 25
56 11 6
56 12 16
56 13 7
56 14 21
56 15 19
56 16 24
56 17 14
56 18 2
56 19 2
56 20 5
56 21 23
56 22 5
56 23 10
56 24 19
56 25 3
56 26 5
56 27 3
56 28 6
56 29 19
56 30 5
56 31 13
56 32 3
56 33 1
56 34 5
56 35 10
56 36 15
56 37 23
56 38 5
56 39 23
56 40 6
56 41 9
56 42 12
56 43 7
56 44 11
56 45 19
56 46 19
56 47 11
56 48 10
56 49 25
56 50 5
56 51 10
56 52 13
56 53 20
56 54 24
56 55 3
57 0 19
57 1 23
57 2 11
57 3 8
57 4 4
57 5 15
57 6 25
57 7 5
57 8 13
57 9 9
57 10 24
57 11 21
57 12 7
57 13 5
57 14 9
57 15 11
57 16 21
57 17 4
57 18 6
57 19 9
57 20 19
57 21 14
57 22 24
57 23 21
57 24 22
57 25 25
57 26 15
57 27 6
57 28 24
57 29 21
57 30 7
57 31 15
57 32 20
57 33 1
57 34 12
57 35 19
57 36 15
57 37 8
57 38 3
57 39 5
57 40 22
57 41 6
57 42 25
57 43 17
57 44 22
57 45 10
57 46 15
57 47 1
57 48 12
57 49 2
57 50 10
57 51 19
57 52 19
57 53 1
57 54 16
57 55 4
57 56 1
58 0 1
58 1 15
58 2 17
58 3 14
58 4 12
58 5 18
58 6 2
58 7 3
58 8 10
58 9 7
58 10 18
58 11 22
58 12 8
58 13 1
58 14 10
58 15 14
58 16 23
58 17 15
58 18 9
58 19 16
58 20 19
58 21 3
58 22 6
58 23 11
58 24 21
58 25 7
58 26 6
58 27 14
58 28 12
58 29 18
58 30 24
58 31 1
58 32 13
58 33 23
58 34 1
58 35 13
58 36 11
58 37 3
58 38 14
58 39 3
58 40 16
58 41 4
58 42 23
58 43 17
58 44 9
58 45 1
58 46 24
58 47 18
58 48 3
58 49 7
58 50 20
58 51 13
58 52 3
58 53 6
58 54 13
58 55 12
58 56 6
58 57 15
59 0 3
59 1 5
59 2 25
59 3 14
59 4 7
59 5 10
59 6 20
59 7 9
59 8 12
59 9 4
59 10 17
59 11 8
59 12 2
59 13 6
59 14 7
59 15 13
59 16 24
59 17 1
59 18 23
59 19 17
59 20 21
59 21 9
59 22 8
59 23 15
59 24 22
59 25 22
59 26 12
59 27 6
59 28 17
59 29 22
59 30 21
59 31 23
59 32 17
59 33 9
59 34 7
59 35 1
59 36 24
59 37 18
59 38 18
59 39 18
59 40 4
59 41 15
59 42 23
59 43 21
59 44 4
59 45 19
59 46 2
59 47 16
59 48 9
59 49 24
59 50 14
59 51 21
59 52 24
59 53 22
59 54 24
59 55 25
59 56 14
59 57 6
59 58 2
60 0 23
60 1 2
60 2 2
60 3 23
60 4 16
60 5 12
60 6 1
60 7 12
60 8 25
60 9 1
60 10 11
60 11 18
60 12 11
60 13 10
60 14 13
60 15 19
60 16 20
60 17 25
60 18 12
60 19 5
60 20 10
60 21 3
60 22 5
60 23 25
60 24 11
60 25 11
60 26 25
60 27 20
60 28 11
60 29 5
60 30 4
60 31 18
60 32 18
60 33 19
60 34 11
60 35 22
60 36 16
60 37 9
60 38 13
60 39 18
60 40 5
60 41 22
60 42 17
60 43 7
60 44 12
60 45 5
60 46 1
60 47 1
60 48 19
60 49 20
60 50 13
60 51 16
60 52 5
60 53 19
60 54 4
60 55 12
60 56 3
60 57 1
60 58 11
60 59 7
61 0 7
61 1 23
61 2 24
61 3 2
61 4 2
61 5 1
61 6 2
61 7 15
61 8 5
61 9 3
61 10 24
61 11 7
61 12 4
61 13 14
61 14 1
61 15 24
61 16 1
61 17 7
61 18 10
61 19 4
61 20 5
61 21 22
61 22 5
61 23 10
61 24 14
61 25 19
61 26 13
61 27 5
61 28 25
61 29 4
61 30 20
61 31 14
61 32 2
61 33 17
61 34 14
61 35 1
61 36 16
61 37 12
61 38 18
61 39 13
61 40 16
61 41 13
61 42 8
61 43 24
61 44 18
61 45 1
61 46 6
61 47 23
61 48 12
61 49 13
61 50 20
61 51 6
61 52 18
61 53 6
61 54 18
61 55 20
61 56 3
61 57 18
61 58 6
61 59 9
61 60 19
62 0 12
62 1 7
62 2 1
62 3 7
62 4 21
62 5 4
62 6 21
62 7 19
62 8 11
62 9 7
62 10 5
62 11 6
62 12 17
62 13 3
62 14 6
62 15 3
62 16 16
62 17 4
62 18 2
62 19 20
62 20 7
62 21 5
62 22 13
62 23 10
62 24 13
62 25 1
62 26 21
62 27 5
62 28 21
62 29 25
62 30 14
62 31 24
62 32 23
62 33 12
62 34 13
62 35 3
62 36 6
62 37 2
62 38 13
62 39 8
62 40 3
62 41 20
62 42 8
62 43 22
62 44 6
62 45 3
62 46 17
62 47 10
62 48 3
62 49 9
62 50 11
62 51 21
62 52 11
62 53 24
62 54 13
62 55 23
62 56 15
62 57 14
62 58 7
62 59 18
62 60 23
62 61 10
63 0 3
63 1 7
63 2 4
63 3 3
63 4 12
63 5 6
63 6 13
63 7 13
63 8 25
63 9 16
63 10 24
63 11 7
63 12 4
63 13 23
63 14 21
63 15 6
63 16 5
63 17 16
63 18 25
63 19 23
63 20 9
63 21 16
63 22 24
63 23 21
63 24 12
63 25 4
63 26 16
63 27 22
63 28 5
63 29 22
63 30 22
63 31 9
63 32 8
63 33 25
63 34 19
63 35 23
63 36 10
63 37 18
63 38 11
63 39 11
63 40 14
63 41 3
63 42 24
63 43 6
63 44 19
63 45 23
63 46 5
63 47 5
63 48 5
63 49 7
63 50 24
63 51 9
63 52 18
63 53 13
63 54 25
63 55 17
63 56 14
63 57 25
63 58 13
63 59 17
63 60 24
63 61 3
63 62 22
64 0 3
64 1 15
64 2 19
64 3 12
64 4 9
64 5 1
64 6 13
64 7 3
64 8 5
64 9 25
64 10 3
64 11 23
64 12 17
64 13 7
64 14 13
64 15 15
64 16 11
64 17 25
64 18 7
64 19 1
64 20 8
64 21 11
64 22 19
64 23 6
64 24 25
64 25 25
64 26 4
64 27 24
64 28 14
64 29 19
64 30 17
64 31 19
64 32 25
64 33 24
64 34 17
64 35 16
64 36 10
64 37 18
64 38 15
64 39 9
64 40 9
64 41 24
64 42 16
64 43 16
64 44 22
64 45 6
64 46 3
64 47 23
64 48 20
64 49 3
64 50 17
64 51 20
64 52 8
64 53 16
64 54 9
64 55 5
64 56 5
64 57 15
64 58 22
64 59 23
64 60 15
64 61 21
64 62 13
64 63 5
65 0 2
65 1 5
65 2 18
65 3 7
65 4 7
65 5 15
65 6 12
65 7 24
65 8 15
65 9 5
65 10 4
65 11 8
65 12 25
65 13 21
65 14 17
65 15 5
65 16 9
65 17 13
65 18 10
65 19 22
65 20 14
65 21 19
65 22 20
65 23 9
65 24 22
65 25 23
65 26 22
65 27 24
65 28 8
65 29 16
65 30 1
65 31 25
65 32 3
65 33 6
65 34 19
65 35 16
65 36 11
65 37 24
65 38 2
65 39 20
65 40 9
65 41 22
65 42 12
65 43 20
65 44 2
65 45 4
65 46 12
65 47 15
65 48 4
65 49 19
65 50 4
65 51 2
65 52 18
65 53 4
65 54 23
65 55 18
65 56 24
65 57 15
65 58 24
65 59 6
65 60 10
65 61 5
65 62 25
65 63 10
65 64 4
